p cnf 967 2484
51 -700 -1 0
-51 700 0
-51 1 0
52 -51 -3 0
-52 51 0
-52 3 0
53 -701 -4 0
-53 701 0
-53 4 0
54 -53 -6 0
-54 53 0
-54 6 0
55 -702 -703 0
-55 702 0
-55 703 0
56 -704 -7 0
-56 704 0
-56 7 0
57 -56 -9 0
-57 56 0
-57 9 0
58 -705 -55 0
-58 705 0
-58 55 0
59 -11 -706 0
-59 11 0
-59 706 0
60 -59 -707 0
-60 59 0
-60 707 0
61 -708 -58 0
-61 708 0
-61 58 0
62 -13 -704 0
-62 13 0
-62 704 0
63 -62 -14 0
-63 62 0
-63 14 0
64 -709 -61 0
-64 709 0
-64 61 0
65 -710 -1 0
-65 710 0
-65 1 0
66 -65 -16 0
-66 65 0
-66 16 0
67 -711 -64 0
-67 711 0
-67 64 0
68 -18 -712 0
-68 18 0
-68 712 0
69 -68 -19 0
-69 68 0
-69 19 0
70 -713 -67 0
-70 713 0
-70 67 0
71 -714 -20 0
-71 714 0
-71 20 0
72 -71 -22 0
-72 71 0
-72 22 0
73 -715 -70 0
-73 715 0
-73 70 0
74 -16 -15 0
-74 16 0
-74 15 0
75 -74 -716 0
-75 74 0
-75 716 0
76 -717 -73 0
-76 717 0
-76 73 0
77 -718 -707 0
-77 718 0
-77 707 0
78 -77 -25 0
-78 77 0
-78 25 0
79 -719 -76 0
-79 719 0
-79 76 0
80 -68 -6 0
-80 68 0
-80 6 0
81 -720 -79 0
-81 720 0
-81 79 0
82 -721 -8 0
-82 721 0
-82 8 0
83 -82 -26 0
-83 82 0
-83 26 0
84 -722 -81 0
-84 722 0
-84 81 0
85 -27 -3 0
-85 27 0
-85 3 0
86 -85 -723 0
-86 85 0
-86 723 0
87 -724 -84 0
-87 724 0
-87 84 0
88 -29 -11 0
-88 29 0
-88 11 0
89 -88 -725 0
-89 88 0
-89 725 0
90 -726 -87 0
-90 726 0
-90 87 0
91 -727 -728 0
-91 727 0
-91 728 0
92 -91 -725 0
-92 91 0
-92 725 0
93 -729 -90 0
-93 729 0
-93 90 0
94 -31 -10 0
-94 31 0
-94 10 0
95 -94 -32 0
-95 94 0
-95 32 0
96 -730 -93 0
-96 730 0
-96 93 0
97 -731 -732 0
-97 731 0
-97 732 0
98 -97 -34 0
-98 97 0
-98 34 0
99 -733 -96 0
-99 733 0
-99 96 0
100 -35 -734 0
-100 35 0
-100 734 0
101 -100 -716 0
-101 100 0
-101 716 0
102 -735 -99 0
-102 735 0
-102 99 0
103 -25 -712 0
-103 25 0
-103 712 0
104 -103 -36 0
-104 103 0
-104 36 0
105 -736 -102 0
-105 736 0
-105 102 0
106 -731 -725 0
-106 731 0
-106 725 0
107 -106 -716 0
-107 106 0
-107 716 0
108 -737 -105 0
-108 737 0
-108 105 0
109 -714 -2 0
-109 714 0
-109 2 0
110 -109 -738 0
-110 109 0
-110 738 0
111 -739 -108 0
-111 739 0
-111 108 0
112 -33 -723 0
-112 33 0
-112 723 0
113 -112 -37 0
-113 112 0
-113 37 0
114 -740 -111 0
-114 740 0
-114 111 0
115 -19 -16 0
-115 19 0
-115 16 0
116 -115 -38 0
-116 115 0
-116 38 0
117 -741 -114 0
-117 741 0
-117 114 0
118 -742 -743 0
-118 742 0
-118 743 0
119 -118 -744 0
-119 118 0
-119 744 0
120 -745 -117 0
-120 745 0
-120 117 0
121 -40 -22 0
-121 40 0
-121 22 0
122 -121 -746 0
-122 121 0
-122 746 0
123 -747 -120 0
-123 747 0
-123 120 0
124 -748 -742 0
-124 748 0
-124 742 0
125 -124 -749 0
-125 124 0
-125 749 0
126 -750 -123 0
-126 750 0
-126 123 0
127 -738 -751 0
-127 738 0
-127 751 0
128 -127 -752 0
-128 127 0
-128 752 0
129 -753 -126 0
-129 753 0
-129 126 0
130 -14 -754 0
-130 14 0
-130 754 0
131 -130 -38 0
-131 130 0
-131 38 0
132 -755 -129 0
-132 755 0
-132 129 0
133 -756 -43 0
-133 756 0
-133 43 0
134 -133 -744 0
-134 133 0
-134 744 0
135 -757 -132 0
-135 757 0
-135 132 0
136 -16 -13 0
-136 16 0
-136 13 0
137 -136 -758 0
-137 136 0
-137 758 0
138 -759 -135 0
-138 759 0
-138 135 0
139 -88 -760 0
-139 88 0
-139 760 0
140 -761 -138 0
-140 761 0
-140 138 0
141 -762 -5 0
-141 762 0
-141 5 0
142 -141 -32 0
-142 141 0
-142 32 0
143 -763 -140 0
-143 763 0
-143 140 0
144 -32 -25 0
-144 32 0
-144 25 0
145 -144 -45 0
-145 144 0
-145 45 0
146 -764 -143 0
-146 764 0
-146 143 0
147 -39 -8 0
-147 39 0
-147 8 0
148 -147 -23 0
-148 147 0
-148 23 0
149 -765 -146 0
-149 765 0
-149 146 0
150 -752 -14 0
-150 752 0
-150 14 0
151 -150 -766 0
-151 150 0
-151 766 0
152 -767 -149 0
-152 767 0
-152 149 0
153 -12 -768 0
-153 12 0
-153 768 0
154 -153 -723 0
-154 153 0
-154 723 0
155 -769 -152 0
-155 769 0
-155 152 0
156 -44 -10 0
-156 44 0
-156 10 0
157 -156 -746 0
-157 156 0
-157 746 0
158 -770 -155 0
-158 770 0
-158 155 0
159 -712 -4 0
-159 712 0
-159 4 0
160 -159 -707 0
-160 159 0
-160 707 0
161 -771 -158 0
-161 771 0
-161 158 0
162 -772 -31 0
-162 772 0
-162 31 0
163 -162 -45 0
-163 162 0
-163 45 0
164 -773 -161 0
-164 773 0
-164 161 0
165 -774 -704 0
-165 774 0
-165 704 0
166 -165 -5 0
-166 165 0
-166 5 0
167 -775 -164 0
-167 775 0
-167 164 0
168 -734 -700 0
-168 734 0
-168 700 0
169 -168 -26 0
-169 168 0
-169 26 0
170 -776 -167 0
-170 776 0
-170 167 0
171 -742 -772 0
-171 742 0
-171 772 0
172 -171 -716 0
-172 171 0
-172 716 0
173 -777 -170 0
-173 777 0
-173 170 0
174 -734 -718 0
-174 734 0
-174 718 0
175 -174 -760 0
-175 174 0
-175 760 0
176 -778 -173 0
-176 778 0
-176 173 0
177 -731 -779 0
-177 731 0
-177 779 0
178 -177 -723 0
-178 177 0
-178 723 0
179 -780 -176 0
-179 780 0
-179 176 0
180 -21 -15 0
-180 21 0
-180 15 0
181 -180 -30 0
-181 180 0
-181 30 0
182 -781 -179 0
-182 781 0
-182 179 0
183 -12 -782 0
-183 12 0
-183 782 0
184 -183 -26 0
-184 183 0
-184 26 0
185 -783 -182 0
-185 783 0
-185 182 0
186 -37 -784 0
-186 37 0
-186 784 0
187 -186 -749 0
-187 186 0
-187 749 0
188 -785 -185 0
-188 785 0
-188 185 0
189 -33 -16 0
-189 33 0
-189 16 0
190 -189 -728 0
-190 189 0
-190 728 0
191 -786 -188 0
-191 786 0
-191 188 0
192 -44 -6 0
-192 44 0
-192 6 0
193 -192 -760 0
-193 192 0
-193 760 0
194 -787 -191 0
-194 787 0
-194 191 0
195 -756 -744 0
-195 756 0
-195 744 0
196 -195 -35 0
-196 195 0
-196 35 0
197 -788 -194 0
-197 788 0
-197 194 0
198 -27 -710 0
-198 27 0
-198 710 0
199 -198 -725 0
-199 198 0
-199 725 0
200 -789 -197 0
-200 789 0
-200 197 0
201 -790 -704 0
-201 790 0
-201 704 0
202 -201 -791 0
-202 201 0
-202 791 0
203 -792 -200 0
-203 792 0
-203 200 0
204 -49 -793 0
-204 49 0
-204 793 0
205 -204 -701 0
-205 204 0
-205 701 0
206 -794 -203 0
-206 794 0
-206 203 0
207 -746 -16 0
-207 746 0
-207 16 0
208 -207 -760 0
-208 207 0
-208 760 0
209 -795 -206 0
-209 795 0
-209 206 0
210 -744 -18 0
-210 744 0
-210 18 0
211 -210 -25 0
-211 210 0
-211 25 0
212 -796 -209 0
-212 796 0
-212 209 0
213 -17 -797 0
-213 17 0
-213 797 0
214 -213 -21 0
-214 213 0
-214 21 0
215 -798 -212 0
-215 798 0
-215 212 0
216 -710 -732 0
-216 710 0
-216 732 0
217 -216 -734 0
-217 216 0
-217 734 0
218 -799 -215 0
-218 799 0
-218 215 0
219 -29 -21 0
-219 29 0
-219 21 0
220 -219 -791 0
-220 219 0
-220 791 0
221 -800 -218 0
-221 800 0
-221 218 0
222 -774 -5 0
-222 774 0
-222 5 0
223 -222 -23 0
-223 222 0
-223 23 0
224 -801 -221 0
-224 801 0
-224 221 0
225 -793 -797 0
-225 793 0
-225 797 0
226 -225 -26 0
-226 225 0
-226 26 0
227 -802 -224 0
-227 802 0
-227 224 0
228 -37 -11 0
-228 37 0
-228 11 0
229 -228 -23 0
-229 228 0
-229 23 0
230 -803 -227 0
-230 803 0
-230 227 0
231 -12 -7 0
-231 12 0
-231 7 0
232 -231 -772 0
-232 231 0
-232 772 0
233 -804 -230 0
-233 804 0
-233 230 0
234 -33 -2 0
-234 33 0
-234 2 0
235 -234 -721 0
-235 234 0
-235 721 0
236 -805 -233 0
-236 805 0
-236 233 0
237 -793 -14 0
-237 793 0
-237 14 0
238 -237 -26 0
-238 237 0
-238 26 0
239 -806 -236 0
-239 806 0
-239 236 0
240 -47 -19 0
-240 47 0
-240 19 0
241 -240 -738 0
-241 240 0
-241 738 0
242 -807 -239 0
-242 807 0
-242 239 0
243 -44 -714 0
-243 44 0
-243 714 0
244 -243 -25 0
-244 243 0
-244 25 0
245 -808 -242 0
-245 808 0
-245 242 0
246 -30 -12 0
-246 30 0
-246 12 0
247 -246 -34 0
-247 246 0
-247 34 0
248 -809 -245 0
-248 809 0
-248 245 0
249 -35 -29 0
-249 35 0
-249 29 0
250 -249 -25 0
-250 249 0
-250 25 0
251 -810 -248 0
-251 810 0
-251 248 0
252 -790 -731 0
-252 790 0
-252 731 0
253 -252 -751 0
-253 252 0
-253 751 0
254 -811 -251 0
-254 811 0
-254 251 0
255 -812 -725 0
-255 812 0
-255 725 0
256 -255 -42 0
-256 255 0
-256 42 0
257 -813 -254 0
-257 813 0
-257 254 0
258 -814 -16 0
-258 814 0
-258 16 0
259 -258 -728 0
-259 258 0
-259 728 0
260 -815 -257 0
-260 815 0
-260 257 0
261 -723 -2 0
-261 723 0
-261 2 0
262 -261 -738 0
-262 261 0
-262 738 0
263 -816 -260 0
-263 816 0
-263 260 0
264 -27 -15 0
-264 27 0
-264 15 0
265 -264 -797 0
-265 264 0
-265 797 0
266 -817 -263 0
-266 817 0
-266 263 0
267 -732 -751 0
-267 732 0
-267 751 0
268 -267 -791 0
-268 267 0
-268 791 0
269 -818 -266 0
-269 818 0
-269 266 0
270 -746 -13 0
-270 746 0
-270 13 0
271 -270 -34 0
-271 270 0
-271 34 0
272 -819 -269 0
-272 819 0
-272 269 0
273 -12 -743 0
-273 12 0
-273 743 0
274 -273 -716 0
-274 273 0
-274 716 0
275 -820 -272 0
-275 820 0
-275 272 0
276 -821 -704 0
-276 821 0
-276 704 0
277 -276 -42 0
-277 276 0
-277 42 0
278 -822 -275 0
-278 822 0
-278 275 0
279 -49 -41 0
-279 49 0
-279 41 0
280 -279 -707 0
-280 279 0
-280 707 0
281 -823 -278 0
-281 823 0
-281 278 0
282 -30 -723 0
-282 30 0
-282 723 0
283 -282 -40 0
-283 282 0
-283 40 0
284 -824 -281 0
-284 824 0
-284 281 0
285 -24 -758 0
-285 24 0
-285 758 0
286 -285 -35 0
-286 285 0
-286 35 0
287 -825 -284 0
-287 825 0
-287 284 0
288 -797 -4 0
-288 797 0
-288 4 0
289 -288 -814 0
-289 288 0
-289 814 0
290 -826 -287 0
-290 826 0
-290 287 0
291 -43 -718 0
-291 43 0
-291 718 0
292 -291 -28 0
-292 291 0
-292 28 0
293 -827 -290 0
-293 827 0
-293 290 0
294 -812 -7 0
-294 812 0
-294 7 0
295 -294 -36 0
-295 294 0
-295 36 0
296 -828 -293 0
-296 828 0
-296 293 0
297 -731 -754 0
-297 731 0
-297 754 0
298 -297 -25 0
-298 297 0
-298 25 0
299 -829 -296 0
-299 829 0
-299 296 0
300 -752 -721 0
-300 752 0
-300 721 0
301 -300 -23 0
-301 300 0
-301 23 0
302 -830 -299 0
-302 830 0
-302 299 0
303 -10 -754 0
-303 10 0
-303 754 0
304 -303 -5 0
-304 303 0
-304 5 0
305 -831 -302 0
-305 831 0
-305 302 0
306 -756 -832 0
-306 756 0
-306 832 0
307 -306 -766 0
-307 306 0
-307 766 0
308 -833 -305 0
-308 833 0
-308 305 0
309 -718 -8 0
-309 718 0
-309 8 0
310 -309 -6 0
-310 309 0
-310 6 0
311 -834 -308 0
-311 834 0
-311 308 0
312 -50 -700 0
-312 50 0
-312 700 0
313 -312 -3 0
-313 312 0
-313 3 0
314 -835 -311 0
-314 835 0
-314 311 0
315 -16 -10 0
-315 16 0
-315 10 0
316 -315 -14 0
-316 315 0
-316 14 0
317 -836 -314 0
-317 836 0
-317 314 0
318 -41 -1 0
-318 41 0
-318 1 0
319 -318 -18 0
-319 318 0
-319 18 0
320 -837 -317 0
-320 837 0
-320 317 0
321 -45 -21 0
-321 45 0
-321 21 0
322 -321 -791 0
-322 321 0
-322 791 0
323 -838 -320 0
-323 838 0
-323 320 0
324 -47 -768 0
-324 47 0
-324 768 0
325 -324 -707 0
-325 324 0
-325 707 0
326 -839 -323 0
-326 839 0
-326 323 0
327 -706 -701 0
-327 706 0
-327 701 0
328 -327 -6 0
-328 327 0
-328 6 0
329 -840 -326 0
-329 840 0
-329 326 0
330 -744 -731 0
-330 744 0
-330 731 0
331 -330 -31 0
-331 330 0
-331 31 0
332 -841 -329 0
-332 841 0
-332 329 0
333 -748 -1 0
-333 748 0
-333 1 0
334 -333 -49 0
-334 333 0
-334 49 0
335 -842 -332 0
-335 842 0
-335 332 0
336 -793 -707 0
-336 793 0
-336 707 0
337 -336 -32 0
-337 336 0
-337 32 0
338 -843 -335 0
-338 843 0
-338 335 0
339 -41 -714 0
-339 41 0
-339 714 0
340 -339 -40 0
-340 339 0
-340 40 0
341 -844 -338 0
-341 844 0
-341 338 0
342 -738 -712 0
-342 738 0
-342 712 0
343 -342 -36 0
-343 342 0
-343 36 0
344 -845 -341 0
-344 845 0
-344 341 0
345 -50 -1 0
-345 50 0
-345 1 0
346 -345 -782 0
-346 345 0
-346 782 0
347 -846 -344 0
-347 846 0
-347 344 0
348 -24 -19 0
-348 24 0
-348 19 0
349 -348 -26 0
-349 348 0
-349 26 0
350 -847 -347 0
-350 847 0
-350 347 0
351 -812 -768 0
-351 812 0
-351 768 0
352 -351 -714 0
-352 351 0
-352 714 0
353 -848 -350 0
-353 848 0
-353 350 0
354 -33 -779 0
-354 33 0
-354 779 0
355 -354 -718 0
-355 354 0
-355 718 0
356 -849 -353 0
-356 849 0
-356 353 0
357 -5 -782 0
-357 5 0
-357 782 0
358 -357 -716 0
-358 357 0
-358 716 0
359 -850 -356 0
-359 850 0
-359 356 0
360 -25 -2 0
-360 25 0
-360 2 0
361 -360 -760 0
-361 360 0
-361 760 0
362 -851 -359 0
-362 851 0
-362 359 0
363 -15 -7 0
-363 15 0
-363 7 0
364 -363 -852 0
-364 363 0
-364 852 0
365 -853 -362 0
-365 853 0
-365 362 0
366 -790 -18 0
-366 790 0
-366 18 0
367 -366 -21 0
-367 366 0
-367 21 0
368 -854 -365 0
-368 854 0
-368 365 0
369 -832 -743 0
-369 832 0
-369 743 0
370 -369 -14 0
-370 369 0
-370 14 0
371 -855 -368 0
-371 855 0
-371 368 0
372 -44 -43 0
-372 44 0
-372 43 0
373 -372 -8 0
-373 372 0
-373 8 0
374 -856 -371 0
-374 856 0
-374 371 0
375 -793 -11 0
-375 793 0
-375 11 0
376 -375 -32 0
-376 375 0
-376 32 0
377 -857 -374 0
-377 857 0
-377 374 0
378 -21 -6 0
-378 21 0
-378 6 0
379 -378 -42 0
-379 378 0
-379 42 0
380 -858 -377 0
-380 858 0
-380 377 0
381 -859 -13 0
-381 859 0
-381 13 0
382 -381 -39 0
-382 381 0
-382 39 0
383 -860 -380 0
-383 860 0
-383 380 0
384 -812 -16 0
-384 812 0
-384 16 0
385 -384 -31 0
-385 384 0
-385 31 0
386 -861 -383 0
-386 861 0
-386 383 0
387 -10 -782 0
-387 10 0
-387 782 0
388 -387 -19 0
-388 387 0
-388 19 0
389 -862 -386 0
-389 862 0
-389 386 0
390 -16 -706 0
-390 16 0
-390 706 0
391 -390 -38 0
-391 390 0
-391 38 0
392 -863 -389 0
-392 863 0
-392 389 0
393 -43 -701 0
-393 43 0
-393 701 0
394 -393 -31 0
-394 393 0
-394 31 0
395 -864 -392 0
-395 864 0
-395 392 0
396 -727 -20 0
-396 727 0
-396 20 0
397 -396 -32 0
-397 396 0
-397 32 0
398 -865 -395 0
-398 865 0
-398 395 0
399 -46 -852 0
-399 46 0
-399 852 0
400 -399 -32 0
-400 399 0
-400 32 0
401 -866 -398 0
-401 866 0
-401 398 0
402 -3 -700 0
-402 3 0
-402 700 0
403 -402 -5 0
-403 402 0
-403 5 0
404 -867 -401 0
-404 867 0
-404 401 0
405 -15 -8 0
-405 15 0
-405 8 0
406 -405 -821 0
-406 405 0
-406 821 0
407 -868 -404 0
-407 868 0
-407 404 0
408 -791 -26 0
-408 791 0
-408 26 0
409 -408 -23 0
-409 408 0
-409 23 0
410 -869 -407 0
-410 869 0
-410 407 0
411 -48 -2 0
-411 48 0
-411 2 0
412 -411 -16 0
-412 411 0
-412 16 0
413 -870 -410 0
-413 870 0
-413 410 0
414 -707 -10 0
-414 707 0
-414 10 0
415 -414 -9 0
-415 414 0
-415 9 0
416 -871 -413 0
-416 871 0
-416 413 0
417 -752 -40 0
-417 752 0
-417 40 0
418 -417 -766 0
-418 417 0
-418 766 0
419 -872 -416 0
-419 872 0
-419 416 0
420 -35 -751 0
-420 35 0
-420 751 0
421 -420 -873 0
-421 420 0
-421 873 0
422 -874 -419 0
-422 874 0
-422 419 0
423 -744 -706 0
-423 744 0
-423 706 0
424 -423 -38 0
-424 423 0
-424 38 0
425 -875 -422 0
-425 875 0
-425 422 0
426 -859 -754 0
-426 859 0
-426 754 0
427 -426 -30 0
-427 426 0
-427 30 0
428 -876 -425 0
-428 876 0
-428 425 0
429 -728 -768 0
-429 728 0
-429 768 0
430 -429 -34 0
-430 429 0
-430 34 0
431 -877 -428 0
-431 877 0
-431 428 0
432 -784 -15 0
-432 784 0
-432 15 0
433 -432 -45 0
-433 432 0
-433 45 0
434 -878 -431 0
-434 878 0
-434 431 0
435 -731 -701 0
-435 731 0
-435 701 0
436 -435 -758 0
-436 435 0
-436 758 0
437 -879 -434 0
-437 879 0
-437 434 0
438 -37 -32 0
-438 37 0
-438 32 0
439 -438 -38 0
-439 438 0
-439 38 0
440 -880 -437 0
-440 880 0
-440 437 0
441 -779 -1 0
-441 779 0
-441 1 0
442 -441 -791 0
-442 441 0
-442 791 0
443 -881 -440 0
-443 881 0
-443 440 0
444 -44 -17 0
-444 44 0
-444 17 0
445 -444 -746 0
-445 444 0
-445 746 0
446 -882 -443 0
-446 882 0
-446 443 0
447 -723 -24 0
-447 723 0
-447 24 0
448 -447 -36 0
-448 447 0
-448 36 0
449 -883 -446 0
-449 883 0
-449 446 0
450 -18 -704 0
-450 18 0
-450 704 0
451 -450 -45 0
-451 450 0
-451 45 0
452 -884 -449 0
-452 884 0
-452 449 0
453 -718 -11 0
-453 718 0
-453 11 0
454 -453 -38 0
-454 453 0
-454 38 0
455 -885 -452 0
-455 885 0
-455 452 0
456 -754 -1 0
-456 754 0
-456 1 0
457 -456 -852 0
-457 456 0
-457 852 0
458 -886 -455 0
-458 886 0
-458 455 0
459 -756 -768 0
-459 756 0
-459 768 0
460 -459 -21 0
-460 459 0
-460 21 0
461 -887 -458 0
-461 887 0
-461 458 0
462 -812 -14 0
-462 812 0
-462 14 0
463 -462 -23 0
-463 462 0
-463 23 0
464 -888 -461 0
-464 888 0
-464 461 0
465 -11 -704 0
-465 11 0
-465 704 0
466 -465 -744 0
-466 465 0
-466 744 0
467 -889 -464 0
-467 889 0
-467 464 0
468 -29 -797 0
-468 29 0
-468 797 0
469 -468 -721 0
-469 468 0
-469 721 0
470 -890 -467 0
-470 890 0
-470 467 0
471 -756 -793 0
-471 756 0
-471 793 0
472 -471 -39 0
-472 471 0
-472 39 0
473 -891 -470 0
-473 891 0
-473 470 0
474 -859 -2 0
-474 859 0
-474 2 0
475 -474 -706 0
-475 474 0
-475 706 0
476 -892 -473 0
-476 892 0
-476 473 0
477 -814 -710 0
-477 814 0
-477 710 0
478 -477 -706 0
-478 477 0
-478 706 0
479 -893 -476 0
-479 893 0
-479 476 0
480 -19 -11 0
-480 19 0
-480 11 0
481 -480 -746 0
-481 480 0
-481 746 0
482 -894 -479 0
-482 894 0
-482 479 0
483 -118 -9 0
-483 118 0
-483 9 0
484 -895 -482 0
-484 895 0
-484 482 0
485 -742 -17 0
-485 742 0
-485 17 0
486 -485 -873 0
-486 485 0
-486 873 0
487 -896 -484 0
-487 896 0
-487 484 0
488 -44 -28 0
-488 44 0
-488 28 0
489 -488 -734 0
-489 488 0
-489 734 0
490 -897 -487 0
-490 897 0
-490 487 0
491 -10 -2 0
-491 10 0
-491 2 0
492 -491 -12 0
-492 491 0
-492 12 0
493 -898 -490 0
-493 898 0
-493 490 0
494 -41 -20 0
-494 41 0
-494 20 0
495 -494 -766 0
-495 494 0
-495 766 0
496 -899 -493 0
-496 899 0
-496 493 0
497 -30 -29 0
-497 30 0
-497 29 0
498 -497 -34 0
-498 497 0
-498 34 0
499 -900 -496 0
-499 900 0
-499 496 0
500 -774 -812 0
-500 774 0
-500 812 0
501 -500 -721 0
-501 500 0
-501 721 0
502 -901 -499 0
-502 901 0
-502 499 0
503 -738 -768 0
-503 738 0
-503 768 0
504 -503 -32 0
-504 503 0
-504 32 0
505 -902 -502 0
-505 902 0
-505 502 0
506 -49 -47 0
-506 49 0
-506 47 0
507 -506 -707 0
-507 506 0
-507 707 0
508 -903 -505 0
-508 903 0
-508 505 0
509 -136 -45 0
-509 136 0
-509 45 0
510 -904 -508 0
-510 904 0
-510 508 0
511 -8 -701 0
-511 8 0
-511 701 0
512 -511 -19 0
-512 511 0
-512 19 0
513 -905 -510 0
-513 905 0
-513 510 0
514 -852 -17 0
-514 852 0
-514 17 0
515 -514 -873 0
-515 514 0
-515 873 0
516 -906 -513 0
-516 906 0
-516 513 0
517 -732 -832 0
-517 732 0
-517 832 0
518 -517 -749 0
-518 517 0
-518 749 0
519 -907 -516 0
-519 907 0
-519 516 0
520 -21 -707 0
-520 21 0
-520 707 0
521 -520 -752 0
-521 520 0
-521 752 0
522 -908 -519 0
-522 908 0
-522 519 0
523 -47 -704 0
-523 47 0
-523 704 0
524 -523 -32 0
-524 523 0
-524 32 0
525 -909 -522 0
-525 909 0
-525 522 0
526 -742 -24 0
-526 742 0
-526 24 0
527 -526 -714 0
-527 526 0
-527 714 0
528 -910 -525 0
-528 910 0
-528 525 0
529 -50 -751 0
-529 50 0
-529 751 0
530 -529 -784 0
-530 529 0
-530 784 0
531 -911 -528 0
-531 911 0
-531 528 0
532 -47 -3 0
-532 47 0
-532 3 0
533 -532 -791 0
-533 532 0
-533 791 0
534 -912 -531 0
-534 912 0
-534 531 0
535 -812 -797 0
-535 812 0
-535 797 0
536 -535 -782 0
-536 535 0
-536 782 0
537 -913 -534 0
-537 913 0
-537 534 0
538 -712 -1 0
-538 712 0
-538 1 0
539 -538 -25 0
-539 538 0
-539 25 0
540 -914 -537 0
-540 914 0
-540 537 0
541 -39 -10 0
-541 39 0
-541 10 0
542 -541 -714 0
-542 541 0
-542 714 0
543 -915 -540 0
-543 915 0
-543 540 0
544 -20 -3 0
-544 20 0
-544 3 0
545 -544 -772 0
-545 544 0
-545 772 0
546 -916 -543 0
-546 916 0
-546 543 0
547 -10 -1 0
-547 10 0
-547 1 0
548 -547 -45 0
-548 547 0
-548 45 0
549 -917 -546 0
-549 917 0
-549 546 0
550 -746 -758 0
-550 746 0
-550 758 0
551 -550 -873 0
-551 550 0
-551 873 0
552 -918 -549 0
-552 918 0
-552 549 0
553 -812 -2 0
-553 812 0
-553 2 0
554 -553 -19 0
-554 553 0
-554 19 0
555 -919 -552 0
-555 919 0
-555 552 0
556 -29 -17 0
-556 29 0
-556 17 0
557 -556 -728 0
-557 556 0
-557 728 0
558 -920 -555 0
-558 920 0
-558 555 0
559 -738 -16 0
-559 738 0
-559 16 0
560 -559 -38 0
-560 559 0
-560 38 0
561 -921 -558 0
-561 921 0
-561 558 0
562 -744 -721 0
-562 744 0
-562 721 0
563 -562 -725 0
-563 562 0
-563 725 0
564 -922 -561 0
-564 922 0
-564 561 0
565 -852 -779 0
-565 852 0
-565 779 0
566 -565 -45 0
-566 565 0
-566 45 0
567 -923 -564 0
-567 923 0
-567 564 0
568 -814 -793 0
-568 814 0
-568 793 0
569 -568 -23 0
-569 568 0
-569 23 0
570 -924 -567 0
-570 924 0
-570 567 0
571 -50 -7 0
-571 50 0
-571 7 0
572 -571 -727 0
-572 571 0
-572 727 0
573 -925 -570 0
-573 925 0
-573 570 0
574 -704 -754 0
-574 704 0
-574 754 0
575 -574 -21 0
-575 574 0
-575 21 0
576 -926 -573 0
-576 926 0
-576 573 0
577 -30 -728 0
-577 30 0
-577 728 0
578 -577 -766 0
-578 577 0
-578 766 0
579 -927 -576 0
-579 927 0
-579 576 0
580 -714 -12 0
-580 714 0
-580 12 0
581 -580 -6 0
-581 580 0
-581 6 0
582 -928 -579 0
-582 928 0
-582 579 0
583 -29 -8 0
-583 29 0
-583 8 0
584 -583 -20 0
-584 583 0
-584 20 0
585 -929 -582 0
-585 929 0
-585 582 0
586 -859 -18 0
-586 859 0
-586 18 0
587 -586 -762 0
-587 586 0
-587 762 0
588 -930 -585 0
-588 930 0
-588 585 0
589 -728 -754 0
-589 728 0
-589 754 0
590 -589 -14 0
-590 589 0
-590 14 0
591 -931 -588 0
-591 931 0
-591 588 0
592 -812 -1 0
-592 812 0
-592 1 0
593 -592 -752 0
-593 592 0
-593 752 0
594 -932 -591 0
-594 932 0
-594 591 0
595 -27 -24 0
-595 27 0
-595 24 0
596 -595 -28 0
-596 595 0
-596 28 0
597 -933 -594 0
-597 933 0
-597 594 0
598 -859 -37 0
-598 859 0
-598 37 0
599 -598 -34 0
-599 598 0
-599 34 0
600 -934 -597 0
-600 934 0
-600 597 0
601 -731 -22 0
-601 731 0
-601 22 0
602 -601 -751 0
-602 601 0
-602 751 0
603 -935 -600 0
-603 935 0
-603 600 0
604 -29 -10 0
-604 29 0
-604 10 0
605 -604 -752 0
-605 604 0
-605 752 0
606 -936 -603 0
-606 936 0
-606 603 0
607 -718 -9 0
-607 718 0
-607 9 0
608 -607 -734 0
-608 607 0
-608 734 0
609 -937 -606 0
-609 937 0
-609 606 0
610 -852 -4 0
-610 852 0
-610 4 0
611 -610 -25 0
-611 610 0
-611 25 0
612 -938 -609 0
-612 938 0
-612 609 0
613 -774 -743 0
-613 774 0
-613 743 0
614 -613 -6 0
-614 613 0
-614 6 0
615 -939 -612 0
-615 939 0
-615 612 0
616 -33 -797 0
-616 33 0
-616 797 0
617 -616 -36 0
-617 616 0
-617 36 0
618 -940 -615 0
-618 940 0
-618 615 0
619 -26 -20 0
-619 26 0
-619 20 0
620 -619 -45 0
-620 619 0
-620 45 0
621 -941 -618 0
-621 941 0
-621 618 0
622 -24 -782 0
-622 24 0
-622 782 0
623 -622 -20 0
-623 622 0
-623 20 0
624 -942 -621 0
-624 942 0
-624 621 0
625 -748 -707 0
-625 748 0
-625 707 0
626 -625 -752 0
-626 625 0
-626 752 0
627 -943 -624 0
-627 943 0
-627 624 0
628 -19 -18 0
-628 19 0
-628 18 0
629 -628 -744 0
-629 628 0
-629 744 0
630 -944 -627 0
-630 944 0
-630 627 0
631 -40 -723 0
-631 40 0
-631 723 0
632 -631 -772 0
-632 631 0
-632 772 0
633 -945 -630 0
-633 945 0
-633 630 0
634 -718 -768 0
-634 718 0
-634 768 0
635 -634 -46 0
-635 634 0
-635 46 0
636 -946 -633 0
-636 946 0
-636 633 0
637 -43 -793 0
-637 43 0
-637 793 0
638 -637 -791 0
-638 637 0
-638 791 0
639 -947 -636 0
-639 947 0
-639 636 0
640 -13 -700 0
-640 13 0
-640 700 0
641 -640 -790 0
-641 640 0
-641 790 0
642 -948 -639 0
-642 948 0
-642 639 0
643 -26 -17 0
-643 26 0
-643 17 0
644 -643 -791 0
-644 643 0
-644 791 0
645 -949 -642 0
-645 949 0
-645 642 0
646 -742 -712 0
-646 742 0
-646 712 0
647 -646 -784 0
-647 646 0
-647 784 0
648 -950 -645 0
-648 950 0
-648 645 0
649 -734 -706 0
-649 734 0
-649 706 0
650 -649 -34 0
-650 649 0
-650 34 0
651 -951 -648 0
-651 951 0
-651 648 0
652 -762 -812 0
-652 762 0
-652 812 0
653 -652 -746 0
-653 652 0
-653 746 0
654 -952 -651 0
-654 952 0
-654 651 0
655 -50 -11 0
-655 50 0
-655 11 0
656 -655 -21 0
-656 655 0
-656 21 0
657 -953 -654 0
-657 953 0
-657 654 0
658 -35 -5 0
-658 35 0
-658 5 0
659 -658 -34 0
-659 658 0
-659 34 0
660 -954 -657 0
-660 954 0
-660 657 0
661 -723 -21 0
-661 723 0
-661 21 0
662 -661 -749 0
-662 661 0
-662 749 0
663 -955 -660 0
-663 955 0
-663 660 0
664 -15 -832 0
-664 15 0
-664 832 0
665 -664 -744 0
-665 664 0
-665 744 0
666 -956 -663 0
-666 956 0
-666 663 0
667 -50 -48 0
-667 50 0
-667 48 0
668 -667 -34 0
-668 667 0
-668 34 0
669 -957 -666 0
-669 957 0
-669 666 0
670 -50 -760 0
-670 50 0
-670 760 0
671 -670 -23 0
-671 670 0
-671 23 0
672 -958 -669 0
-672 958 0
-672 669 0
673 -758 -751 0
-673 758 0
-673 751 0
674 -673 -35 0
-674 673 0
-674 35 0
675 -959 -672 0
-675 959 0
-675 672 0
676 -27 -700 0
-676 27 0
-676 700 0
677 -676 -731 0
-677 676 0
-677 731 0
678 -960 -675 0
-678 960 0
-678 675 0
679 -20 -704 0
-679 20 0
-679 704 0
680 -679 -714 0
-680 679 0
-680 714 0
681 -961 -678 0
-681 961 0
-681 678 0
682 -39 -2 0
-682 39 0
-682 2 0
683 -682 -23 0
-683 682 0
-683 23 0
684 -962 -681 0
-684 962 0
-684 681 0
685 -41 -731 0
-685 41 0
-685 731 0
686 -685 -784 0
-686 685 0
-686 784 0
687 -963 -684 0
-687 963 0
-687 684 0
688 -727 -4 0
-688 727 0
-688 4 0
689 -688 -784 0
-689 688 0
-689 784 0
690 -964 -687 0
-690 964 0
-690 687 0
691 -738 -13 0
-691 738 0
-691 13 0
692 -691 -716 0
-692 691 0
-692 716 0
693 -965 -690 0
-693 965 0
-693 690 0
694 -852 -5 0
-694 852 0
-694 5 0
695 -694 -30 0
-695 694 0
-695 30 0
696 -966 -693 0
-696 966 0
-696 693 0
697 -38 -37 0
-697 38 0
-697 37 0
698 -697 -36 0
-698 697 0
-698 36 0
699 -967 -696 0
-699 967 0
-699 696 0
-700 -2 0
700 2 0
-701 -5 0
701 5 0
-702 -54 0
702 54 0
-703 -52 0
703 52 0
-704 -8 0
704 8 0
-705 -57 0
705 57 0
-706 -10 0
706 10 0
-707 -12 0
707 12 0
-708 -60 0
708 60 0
-709 -63 0
709 63 0
-710 -15 0
710 15 0
-711 -66 0
711 66 0
-712 -17 0
712 17 0
-713 -69 0
713 69 0
-714 -21 0
714 21 0
-715 -72 0
715 72 0
-716 -23 0
716 23 0
-717 -75 0
717 75 0
-718 -24 0
718 24 0
-719 -78 0
719 78 0
-720 -80 0
720 80 0
-721 -20 0
721 20 0
-722 -83 0
722 83 0
-723 -28 0
723 28 0
-724 -86 0
724 86 0
-725 -14 0
725 14 0
-726 -89 0
726 89 0
-727 -30 0
727 30 0
-728 -22 0
728 22 0
-729 -92 0
729 92 0
-730 -95 0
730 95 0
-731 -33 0
731 33 0
-732 -13 0
732 13 0
-733 -98 0
733 98 0
-734 -31 0
734 31 0
-735 -101 0
735 101 0
-736 -104 0
736 104 0
-737 -107 0
737 107 0
-738 -37 0
738 37 0
-739 -110 0
739 110 0
-740 -113 0
740 113 0
-741 -116 0
741 116 0
-742 -39 0
742 39 0
-743 -1 0
743 1 0
-744 -40 0
744 40 0
-745 -119 0
745 119 0
-746 -26 0
746 26 0
-747 -122 0
747 122 0
-748 -41 0
748 41 0
-749 -38 0
749 38 0
-750 -125 0
750 125 0
-751 -6 0
751 6 0
-752 -42 0
752 42 0
-753 -128 0
753 128 0
-754 -4 0
754 4 0
-755 -131 0
755 131 0
-756 -44 0
756 44 0
-757 -134 0
757 134 0
-758 -9 0
758 9 0
-759 -137 0
759 137 0
-760 -45 0
760 45 0
-761 -139 0
761 139 0
-762 -46 0
762 46 0
-763 -142 0
763 142 0
-764 -145 0
764 145 0
-765 -148 0
765 148 0
-766 -25 0
766 25 0
-767 -151 0
767 151 0
-768 -11 0
768 11 0
-769 -154 0
769 154 0
-770 -157 0
770 157 0
-771 -160 0
771 160 0
-772 -35 0
772 35 0
-773 -163 0
773 163 0
-774 -47 0
774 47 0
-775 -166 0
775 166 0
-776 -169 0
776 169 0
-777 -172 0
777 172 0
-778 -175 0
778 175 0
-779 -27 0
779 27 0
-780 -178 0
780 178 0
-781 -181 0
781 181 0
-782 -3 0
782 3 0
-783 -184 0
783 184 0
-784 -32 0
784 32 0
-785 -187 0
785 187 0
-786 -190 0
786 190 0
-787 -193 0
787 193 0
-788 -196 0
788 196 0
-789 -199 0
789 199 0
-790 -48 0
790 48 0
-791 -34 0
791 34 0
-792 -202 0
792 202 0
-793 -18 0
793 18 0
-794 -205 0
794 205 0
-795 -208 0
795 208 0
-796 -211 0
796 211 0
-797 -16 0
797 16 0
-798 -214 0
798 214 0
-799 -217 0
799 217 0
-800 -220 0
800 220 0
-801 -223 0
801 223 0
-802 -226 0
802 226 0
-803 -229 0
803 229 0
-804 -232 0
804 232 0
-805 -235 0
805 235 0
-806 -238 0
806 238 0
-807 -241 0
807 241 0
-808 -244 0
808 244 0
-809 -247 0
809 247 0
-810 -250 0
810 250 0
-811 -253 0
811 253 0
-812 -43 0
812 43 0
-813 -256 0
813 256 0
-814 -49 0
814 49 0
-815 -259 0
815 259 0
-816 -262 0
816 262 0
-817 -265 0
817 265 0
-818 -268 0
818 268 0
-819 -271 0
819 271 0
-820 -274 0
820 274 0
-821 -19 0
821 19 0
-822 -277 0
822 277 0
-823 -280 0
823 280 0
-824 -283 0
824 283 0
-825 -286 0
825 286 0
-826 -289 0
826 289 0
-827 -292 0
827 292 0
-828 -295 0
828 295 0
-829 -298 0
829 298 0
-830 -301 0
830 301 0
-831 -304 0
831 304 0
-832 -7 0
832 7 0
-833 -307 0
833 307 0
-834 -310 0
834 310 0
-835 -313 0
835 313 0
-836 -316 0
836 316 0
-837 -319 0
837 319 0
-838 -322 0
838 322 0
-839 -325 0
839 325 0
-840 -328 0
840 328 0
-841 -331 0
841 331 0
-842 -334 0
842 334 0
-843 -337 0
843 337 0
-844 -340 0
844 340 0
-845 -343 0
845 343 0
-846 -346 0
846 346 0
-847 -349 0
847 349 0
-848 -352 0
848 352 0
-849 -355 0
849 355 0
-850 -358 0
850 358 0
-851 -361 0
851 361 0
-852 -29 0
852 29 0
-853 -364 0
853 364 0
-854 -367 0
854 367 0
-855 -370 0
855 370 0
-856 -373 0
856 373 0
-857 -376 0
857 376 0
-858 -379 0
858 379 0
-859 -50 0
859 50 0
-860 -382 0
860 382 0
-861 -385 0
861 385 0
-862 -388 0
862 388 0
-863 -391 0
863 391 0
-864 -394 0
864 394 0
-865 -397 0
865 397 0
-866 -400 0
866 400 0
-867 -403 0
867 403 0
-868 -406 0
868 406 0
-869 -409 0
869 409 0
-870 -412 0
870 412 0
-871 -415 0
871 415 0
-872 -418 0
872 418 0
-873 -36 0
873 36 0
-874 -421 0
874 421 0
-875 -424 0
875 424 0
-876 -427 0
876 427 0
-877 -430 0
877 430 0
-878 -433 0
878 433 0
-879 -436 0
879 436 0
-880 -439 0
880 439 0
-881 -442 0
881 442 0
-882 -445 0
882 445 0
-883 -448 0
883 448 0
-884 -451 0
884 451 0
-885 -454 0
885 454 0
-886 -457 0
886 457 0
-887 -460 0
887 460 0
-888 -463 0
888 463 0
-889 -466 0
889 466 0
-890 -469 0
890 469 0
-891 -472 0
891 472 0
-892 -475 0
892 475 0
-893 -478 0
893 478 0
-894 -481 0
894 481 0
-895 -483 0
895 483 0
-896 -486 0
896 486 0
-897 -489 0
897 489 0
-898 -492 0
898 492 0
-899 -495 0
899 495 0
-900 -498 0
900 498 0
-901 -501 0
901 501 0
-902 -504 0
902 504 0
-903 -507 0
903 507 0
-904 -509 0
904 509 0
-905 -512 0
905 512 0
-906 -515 0
906 515 0
-907 -518 0
907 518 0
-908 -521 0
908 521 0
-909 -524 0
909 524 0
-910 -527 0
910 527 0
-911 -530 0
911 530 0
-912 -533 0
912 533 0
-913 -536 0
913 536 0
-914 -539 0
914 539 0
-915 -542 0
915 542 0
-916 -545 0
916 545 0
-917 -548 0
917 548 0
-918 -551 0
918 551 0
-919 -554 0
919 554 0
-920 -557 0
920 557 0
-921 -560 0
921 560 0
-922 -563 0
922 563 0
-923 -566 0
923 566 0
-924 -569 0
924 569 0
-925 -572 0
925 572 0
-926 -575 0
926 575 0
-927 -578 0
927 578 0
-928 -581 0
928 581 0
-929 -584 0
929 584 0
-930 -587 0
930 587 0
-931 -590 0
931 590 0
-932 -593 0
932 593 0
-933 -596 0
933 596 0
-934 -599 0
934 599 0
-935 -602 0
935 602 0
-936 -605 0
936 605 0
-937 -608 0
937 608 0
-938 -611 0
938 611 0
-939 -614 0
939 614 0
-940 -617 0
940 617 0
-941 -620 0
941 620 0
-942 -623 0
942 623 0
-943 -626 0
943 626 0
-944 -629 0
944 629 0
-945 -632 0
945 632 0
-946 -635 0
946 635 0
-947 -638 0
947 638 0
-948 -641 0
948 641 0
-949 -644 0
949 644 0
-950 -647 0
950 647 0
-951 -650 0
951 650 0
-952 -653 0
952 653 0
-953 -656 0
953 656 0
-954 -659 0
954 659 0
-955 -662 0
955 662 0
-956 -665 0
956 665 0
-957 -668 0
957 668 0
-958 -671 0
958 671 0
-959 -674 0
959 674 0
-960 -677 0
960 677 0
-961 -680 0
961 680 0
-962 -683 0
962 683 0
-963 -686 0
963 686 0
-964 -689 0
964 689 0
-965 -692 0
965 692 0
-966 -695 0
966 695 0
-967 -698 0
967 698 0
699 0
